47965.0
6, 10, 23, 32, 37, 48, 53, 60, 70, 121, 134, 146, 147, 151, 188, 215, 216, 236, 249, 254, 269, 273, 281, 289, 334, 347, 379, 382, 419, 421, 426, 439, 446, 469, 473, 476, 493, 494, 539, 550, 573, 585, 598, 599, 603, 610, 612, 645, 657, 669, 688, 703, 708, 732, 736, 737, 739, 743, 751, 770, 775, 786, 821, 822, 824, 830, 838, 849, 855, 882, 887, 937, 945, 973, 984